# Solution for model GasLib-40
# Objective value = 7.8292856069845186e+01
loadshed[innode_1] 0
loadshed[innode_2] 0
loadshed[innode_3] 0
loadshed[innode_4] 0
loadshed[innode_5] 0
loadshed[innode_6] 0
loadshed[innode_7] 0
loadshed[innode_8] 0
loadshed[source_1] -0.00855445204925509
loadshed[source_2] 1.4318279813725054e-01
loadshed[source_3] 3.6061308918793678e-01
loadshed[sink_1] 1
loadshed[sink_2] 0
loadshed[sink_3] 0
loadshed[sink_4] 0
loadshed[sink_5] 0
loadshed[sink_6] 0
loadshed[sink_7] 0
loadshed[sink_8] 0
loadshed[sink_9] 0
loadshed[sink_10] 0
loadshed[sink_11] 0
loadshed[sink_12] 1
loadshed[sink_13] 0
loadshed[sink_14] 0
loadshed[sink_15] 0
loadshed[sink_16] 0
loadshed[sink_17] 0
loadshed[sink_18] 3.6384804682191363e-01
loadshed[sink_19] 0
loadshed[sink_20] 0
loadshed[sink_21] 1
loadshed[sink_22] 4.6436241319431304e-01
loadshed[sink_23] 0
loadshed[sink_24] 9.5912341431825543e-01
loadshed[sink_25] 0
loadshed[sink_26] 0
loadshed[sink_27] 0
loadshed[sink_28] 0
loadshed[sink_29] 0
flow[source_1,sink_3] 1.5944265347848119e+02
flow[innode_1,sink_16] 1.6354166666666970e+01
flow[innode_6,sink_13] 1.3398312328912809e+01
flow[sink_13,sink_14] -2.9558543377538591e+00
flow[sink_14,sink_10] -1.9310021004420527e+01
flow[sink_25,sink_26] 0
flow[sink_26,sink_9] 1.6354166666669244e+01
flow[sink_9,sink_18] 0
flow[sink_26,sink_4] -3.2708333333335915e+01
flow[sink_4,sink_20] -79.6447286166777
flow[sink_18,sink_6] -1.0403735067599955e+01
flow[sink_25,innode_8] -1.2673432014514484e+02
flow[sink_6,sink_7] -3.5517808101817977e+01
flow[sink_6,sink_22] 8.75990636755134
flow[sink_7,sink_24] 6.6850249500353276e-01
flow[sink_22,sink_1] 0
flow[sink_24,sink_21] 0
flow[sink_21,sink_12] 0
flow[sink_7,sink_5] -5.2540477263488157e+01
flow[sink_5,sink_17] -6.8894643930154828e+01
flow[sink_17,sink_4] -3.0582228616675025e+01
flow[sink_17,sink_8] -5.4666581980146589e+01
flow[sink_3,sink_23] 16.3541666666697
flow[sink_8,sink_20] -7.1020748646813260e+01
flow[sink_25,sink_20] 1.6701964393015734e+02
flow[sink_25,sink_15] -7.0037802780592443e+01
flow[sink_15,sink_29] -4.9828753920021377e+01
flow[sink_29,sink_28] 1.6354166666667879e+01
flow[sink_29,sink_2] 5.2917382193904416e+01
flow[sink_2,sink_15] 3.6563215527237745e+01
flow[sink_29,innode_7] -1.3545446944726035e+02
flow[innode_4,sink_19] 0
flow[sink_19,innode_3] 3.3365501649902917e+01
flow[innode_4,innode_5] 1.0108085433775430e+02
flow[sink_27,innode_5] -1.0108085433775430e+02
flow[sink_27,sink_19] 8.4726687671087632e+01
flow[sink_10,sink_11] 3.2708333333333641e+01
flow[sink_10,innode_2] -3.5007019354517915e+01
flow[sink_10,innode_3] -3.3365501649902917e+01
flow[innode_6,sink_25] -1.3398312328912809e+01
flow[sink_11,innode_1] 1.6354166666666970e+01
flow[sink_19,innode_2] 3.5007019354517915e+01
flow[source_3,innode_4] 1.0108085433775430e+02
flow[source_2,innode_7] 1.3545446944726035e+02
flow[sink_3,innode_8] 1.2673432014514484e+02
pressure[innode_1] 7.6283856810690878e+01
pressure[innode_2] 78.2858236749059
pressure[innode_3] 7.8211939549735376e+01
pressure[innode_4] 81.01325
pressure[innode_5] 8.0943721258376527e+01
pressure[innode_6] 7.5590794142556874e+01
pressure[innode_7] 81.01325
pressure[innode_8] 8.0480294118722782e+01
pressure[source_1] 81.01325
pressure[source_2] 81.01325
pressure[source_3] 81.01325
pressure[sink_1] 1.0132500000000002e+00
pressure[sink_2] 7.6049916572700539e+01
pressure[sink_3] 8.0480294118722782e+01
pressure[sink_4] 2.9930714096592293e+01
pressure[sink_5] 2.3629809172637703e+01
pressure[sink_6] 1.2910607022949772e+00
pressure[sink_7] 1.7786355458920733e+00
pressure[sink_8] 3.0824674319043250e+01
pressure[sink_9] 2.4793252859703824e+01
pressure[sink_10] 7.6435558118294423e+01
pressure[sink_11] 7.6283856810690878e+01
pressure[sink_12] 1.01325
pressure[sink_13] 7.5516931485753574e+01
pressure[sink_14] 7.5522221238874081e+01
pressure[sink_15] 7.5930545732407012e+01
pressure[sink_16] 75.2622069758732
pressure[sink_17] 2.8761962160644682e+01
pressure[sink_18] 1.01325
pressure[sink_19] 78.2858236749059
pressure[sink_20] 3.5773821715688335e+01
pressure[sink_21] 1.01325
pressure[sink_22] 1.0132500000000002e+00
pressure[sink_23] 80.315576107063
pressure[sink_24] 1.01325
pressure[sink_25] 7.5590794142556874e+01
pressure[sink_26] 2.5772091943646245e+01
pressure[sink_27] 8.0104936944708939e+01
pressure[sink_28] 77.095091310943
pressure[sink_29] 77.3903735845602
interdiction[source_1,sink_3] 0
interdiction[innode_1,sink_16] 0
interdiction[innode_6,sink_13] 0
interdiction[sink_13,sink_14] 0
interdiction[sink_14,sink_10] 0
interdiction[sink_25,sink_26] 1
interdiction[sink_26,sink_9] 0
interdiction[sink_9,sink_18] 1
interdiction[sink_26,sink_4] 0
interdiction[sink_4,sink_20] 0
interdiction[sink_18,sink_6] 0
interdiction[sink_25,innode_8] 0
interdiction[sink_6,sink_7] 0
interdiction[sink_6,sink_22] 0
interdiction[sink_7,sink_24] 0
interdiction[sink_22,sink_1] 0
interdiction[sink_24,sink_21] 0
interdiction[sink_21,sink_12] 0
interdiction[sink_7,sink_5] 0
interdiction[sink_5,sink_17] 0
interdiction[sink_17,sink_4] 0
interdiction[sink_17,sink_8] 0
interdiction[sink_3,sink_23] 0
interdiction[sink_8,sink_20] 0
interdiction[sink_25,sink_20] 0
interdiction[sink_25,sink_15] 0
interdiction[sink_15,sink_29] 0
interdiction[sink_29,sink_28] 0
interdiction[sink_29,sink_2] 0
interdiction[sink_2,sink_15] 0
interdiction[sink_29,innode_7] 0
interdiction[innode_4,sink_19] 1
interdiction[sink_19,innode_3] 0
interdiction[innode_4,innode_5] 0
interdiction[sink_27,innode_5] 0
interdiction[sink_27,sink_19] 0
interdiction[sink_10,sink_11] 0
interdiction[sink_10,innode_2] 0
interdiction[sink_10,innode_3] 0
interdiction[innode_6,sink_25] 0
interdiction[sink_11,innode_1] 0
interdiction[sink_19,innode_2] 0
interdiction[source_3,innode_4] 0
interdiction[source_2,innode_7] 0
interdiction[sink_3,innode_8] 0
WCcheckFlow[source_1,sink_3] 39
WCcheckFlow[innode_1,sink_16] 1
WCcheckFlow[innode_6,sink_13] 13
WCcheckFlow[sink_13,sink_14] 12
WCcheckFlow[sink_14,sink_10] 11
WCcheckFlow[sink_25,sink_26] 0
WCcheckFlow[sink_26,sink_9] 1
WCcheckFlow[sink_9,sink_18] 0
WCcheckFlow[sink_26,sink_4] -2
WCcheckFlow[sink_4,sink_20] -14
WCcheckFlow[sink_18,sink_6] -1
WCcheckFlow[sink_25,innode_8] -36
WCcheckFlow[sink_6,sink_7] -4
WCcheckFlow[sink_6,sink_22] 2
WCcheckFlow[sink_7,sink_24] 3
WCcheckFlow[sink_22,sink_1] 1
WCcheckFlow[sink_24,sink_21] 2
WCcheckFlow[sink_21,sink_12] 1
WCcheckFlow[sink_7,sink_5] -8
WCcheckFlow[sink_5,sink_17] -9
WCcheckFlow[sink_17,sink_4] -11
WCcheckFlow[sink_17,sink_8] 1
WCcheckFlow[sink_3,sink_23] 1
WCcheckFlow[sink_8,sink_20] 0
WCcheckFlow[sink_25,sink_20] 15
WCcheckFlow[sink_25,sink_15] 6
WCcheckFlow[sink_15,sink_29] 5
WCcheckFlow[sink_29,sink_28] 1
WCcheckFlow[sink_29,sink_2] 1
WCcheckFlow[sink_2,sink_15] 0
WCcheckFlow[sink_29,innode_7] 2
WCcheckFlow[innode_4,sink_19] 0
WCcheckFlow[sink_19,innode_3] -5
WCcheckFlow[innode_4,innode_5] -2
WCcheckFlow[sink_27,innode_5] 3
WCcheckFlow[sink_27,sink_19] -4
WCcheckFlow[sink_10,sink_11] 3
WCcheckFlow[sink_10,innode_2] 1
WCcheckFlow[sink_10,innode_3] 6
WCcheckFlow[innode_6,sink_25] -14
WCcheckFlow[sink_11,innode_1] 2
WCcheckFlow[sink_19,innode_2] 0
WCcheckFlow[source_3,innode_4] -1
WCcheckFlow[source_2,innode_7] -1
WCcheckFlow[sink_3,innode_8] 37
